<?xml version = "1.0" standalone="yes"?>
<!-- This file has been generated by DOcplex version 2.23.222  -->
<CPLEXSolution version="1.0">
 <header
   problemName="CVRP"
   objectiveValue="16618.7"
  />
 <variables>
  <variable name="x_0_2" index="1" value="1.00000"/>
  <variable name="x_0_3" index="2" value="1.00000"/>
  <variable name="x_0_6" index="5" value="1.00000"/>
  <variable name="x_0_7" index="6" value="1.00000"/>
  <variable name="x_0_8" index="7" value="1.00000"/>
  <variable name="x_0_9" index="8" value="1.00000"/>
  <variable name="x_0_12" index="11" value="1.00000"/>
  <variable name="x_0_14" index="13" value="1.00000"/>
  <variable name="x_0_15" index="14" value="1.00000"/>
  <variable name="x_0_17" index="16" value="1.00000"/>
  <variable name="x_0_18" index="17" value="1.00000"/>
  <variable name="x_0_19" index="18" value="1.00000"/>
  <variable name="x_1_0" index="19" value="1.00000"/>
  <variable name="x_2_0" index="38" value="1.00000"/>
  <variable name="x_3_0" index="57" value="1.00000"/>
  <variable name="x_4_0" index="76" value="1.00000"/>
  <variable name="x_5_1" index="96" value="1.00000"/>
  <variable name="x_6_10" index="123" value="1.00000"/>
  <variable name="x_7_13" index="145" value="1.00000"/>
  <variable name="x_8_4" index="156" value="1.00000"/>
  <variable name="x_9_0" index="171" value="1.00000"/>
  <variable name="x_10_0" index="190" value="1.00000"/>
  <variable name="x_11_0" index="209" value="1.00000"/>
  <variable name="x_12_16" index="243" value="1.00000"/>
  <variable name="x_13_0" index="247" value="1.00000"/>
  <variable name="x_14_0" index="266" value="1.00000"/>
  <variable name="x_15_11" index="296" value="1.00000"/>
  <variable name="x_16_5" index="309" value="1.00000"/>
  <variable name="x_17_0" index="323" value="1.00000"/>
  <variable name="x_18_0" index="342" value="1.00000"/>
  <variable name="x_19_0" index="361" value="1.00000"/>
  <variable name="u_1" index="380" value="46.00000"/>
  <variable name="u_2" index="381" value="46.00000"/>
  <variable name="u_3" index="382" value="31.00000"/>
  <variable name="u_4" index="383" value="26.00000"/>
  <variable name="u_5" index="384" value="36.00000"/>
  <variable name="u_6" index="385" value="25.00000"/>
  <variable name="u_7" index="386" value="40.00000"/>
  <variable name="u_8" index="387" value="24.00000"/>
  <variable name="u_9" index="388" value="28.00000"/>
  <variable name="u_10" index="389" value="28.00000"/>
  <variable name="u_11" index="390" value="46.00000"/>
  <variable name="u_12" index="391" value="31.00000"/>
  <variable name="u_13" index="392" value="46.00000"/>
  <variable name="u_14" index="393" value="46.00000"/>
  <variable name="u_15" index="394" value="7.00000"/>
  <variable name="u_16" index="395" value="33.00000"/>
  <variable name="u_17" index="396" value="37.00000"/>
  <variable name="u_18" index="397" value="46.00000"/>
  <variable name="u_19" index="398" value="46.00000"/>
 </variables>
</CPLEXSolution>
